13	13	8	7	11	15	19	19	20	6	20	5	20	1	8	20	4	18	20	10	9	16	17	13	19	9	19	6	4	9	11	2	12	19	6	18	17	2	19	12	16	16	13	14	8	13	6	8	20	14
20	4	16	18	18	4	12	10	3	2	17	15	12	1	8	2	18	20	10	19	18	2	8	3	10	13	16	15	18	17	1	15	20	8	11	4	2	5	1	11	4	19	2	19	17	7	1	12	11	12
14	19	10	20	19	6	13	20	17	14	2	6	11	9	11	15	16	20	12	12	18	14	9	17	18	12	19	16	20	14	10	14	18	1	10	5	20	14	2	7	11	1	16	11	12	11	7	11	4	19
18	14	10	17	20	3	11	19	13	5	4	16	18	14	11	9	7	11	8	7	16	4	11	20	17	1	2	1	14	18	15	6	16	11	19	7	15	13	15	10	13	16	7	1	7	10	8	15	3	9
